NAME : A-n4-k5
COMMENT : (Augerat et al, Min no of trucks: 5, Optimal value: 661)
TYPE : CVRP
DIMENSION : 4
EDGE_WEIGHT_TYPE : EUC_2D 
CAPACITY : 15
NODE_COORD_SECTION 
 1 0 0
 2 1 3
 3 4 3
 4 4 6
 5 1 6
DEMAND_SECTION 
1 0 
2 4
3 6 
4 7 
5 3 
DEPOT_SECTION 
 1  
 -1  
EOF 
